db/data/16132121525297253027969337534121526.z3.out
-------------------
2500.120653149
